(declare-fun cmp235.i.i_39_101 () (_ BitVec 1))
(declare-fun narrow_39_103 () (_ BitVec 1))
(declare-fun cmp231.not.i.i_39_100 () (_ BitVec 1))
(declare-fun i140.i.i_39_98 () (_ BitVec 32))
(declare-fun i134.i.i_39_97 () (_ BitVec 32))
(declare-fun i142.i.i_39_99 () (_ BitVec 32))
(declare-fun i132.i.i_39_96 () (_ BitVec 32))
(declare-fun src_reg_39_29 () (_ BitVec 32))
(declare-fun src_reg_39_28 () (_ BitVec 32))
(declare-fun dst_reg_39_11 () (_ BitVec 32))
(declare-fun dst_reg_39_10 () (_ BitVec 32))
(declare-fun i30.i32_39_95 () (_ BitVec 32))
(declare-fun i29.i29_39_94 () (_ BitVec 32))
(declare-fun i28.i26_39_93 () (_ BitVec 32))
(declare-fun src_reg_39_27 () (_ BitVec 32))
(declare-fun i27.i23_39_92 () (_ BitVec 32))
(declare-fun src_reg_39_26 () (_ BitVec 32))
(declare-fun i26.i20_39_91 () (_ BitVec 64))
(declare-fun src_reg_39_25 () (_ BitVec 64))
(declare-fun i25.i17_39_90 () (_ BitVec 64))
(declare-fun src_reg_39_24 () (_ BitVec 64))
(declare-fun i24.i14_39_89 () (_ BitVec 64))
(declare-fun src_reg_39_23 () (_ BitVec 64))
(declare-fun i23.i11_39_88 () (_ BitVec 64))
(declare-fun src_reg_39_22 () (_ BitVec 64))
(declare-fun i22.i8_39_87 () (_ BitVec 64))
(declare-fun src_reg_39_21 () (_ BitVec 64))
(declare-fun i21.i5_39_86 () (_ BitVec 64))
(declare-fun src_reg_39_20 () (_ BitVec 64))
(declare-fun i.i2_39_85 () (_ BitVec 32))
(declare-fun i30.i_39_84 () (_ BitVec 32))
(declare-fun i29.i_39_83 () (_ BitVec 32))
(declare-fun i28.i_39_82 () (_ BitVec 32))
(declare-fun dst_reg_39_9 () (_ BitVec 32))
(declare-fun i27.i_39_81 () (_ BitVec 32))
(declare-fun dst_reg_39_8 () (_ BitVec 32))
(declare-fun i26.i_39_80 () (_ BitVec 64))
(declare-fun dst_reg_39_7 () (_ BitVec 64))
(declare-fun i25.i_39_79 () (_ BitVec 64))
(declare-fun dst_reg_39_6 () (_ BitVec 64))
(declare-fun i24.i_39_78 () (_ BitVec 64))
(declare-fun dst_reg_39_5 () (_ BitVec 64))
(declare-fun i23.i_39_77 () (_ BitVec 64))
(declare-fun dst_reg_39_4 () (_ BitVec 64))
(declare-fun i22.i_39_76 () (_ BitVec 64))
(declare-fun dst_reg_39_3 () (_ BitVec 64))
(declare-fun i21.i_39_75 () (_ BitVec 64))
(declare-fun dst_reg_39_2 () (_ BitVec 64))
(declare-fun i.i_39_74 () (_ BitVec 32))
(declare-fun other_branch_src_reg_39_71 () (_ BitVec 8))
(declare-fun other_branch_src_reg_39_70 () (_ BitVec 32))
(declare-fun other_branch_src_reg_39_69 () (_ BitVec 32))
(declare-fun other_branch_src_reg_39_68 () (_ BitVec 32))
(declare-fun other_branch_src_reg_39_67 () (_ BitVec 32))
(declare-fun other_branch_src_reg_39_66 () (_ BitVec 32))
(declare-fun other_branch_src_reg_39_65 () (_ BitVec 32))
(declare-fun other_branch_src_reg_39_64 () (_ BitVec 32))
(declare-fun other_branch_src_reg_39_63 () (_ BitVec 32))
(declare-fun other_branch_src_reg_39_62 () (_ BitVec 32))
(declare-fun other_branch_src_reg_39_61 () (_ BitVec 64))
(declare-fun other_branch_src_reg_39_60 () (_ BitVec 64))
(declare-fun other_branch_src_reg_39_59 () (_ BitVec 64))
(declare-fun other_branch_src_reg_39_58 () (_ BitVec 64))
(declare-fun other_branch_src_reg_39_57 () (_ BitVec 64))
(declare-fun other_branch_src_reg_39_56 () (_ BitVec 64))
(declare-fun other_branch_src_reg_39_55 () (_ BitVec 32))
(declare-fun other_branch_src_reg_39_54 () (_ BitVec 32))
(declare-fun other_branch_dst_reg_39_53 () (_ BitVec 8))
(declare-fun other_branch_dst_reg_39_52 () (_ BitVec 32))
(declare-fun other_branch_dst_reg_39_51 () (_ BitVec 32))
(declare-fun other_branch_dst_reg_39_50 () (_ BitVec 32))
(declare-fun other_branch_dst_reg_39_49 () (_ BitVec 32))
(declare-fun other_branch_dst_reg_39_48 () (_ BitVec 32))
(declare-fun other_branch_dst_reg_39_47 () (_ BitVec 32))
(declare-fun other_branch_dst_reg_39_46 () (_ BitVec 32))
(declare-fun other_branch_dst_reg_39_45 () (_ BitVec 32))
(declare-fun other_branch_dst_reg_39_44 () (_ BitVec 32))
(declare-fun other_branch_dst_reg_39_43 () (_ BitVec 64))
(declare-fun other_branch_dst_reg_39_42 () (_ BitVec 64))
(declare-fun other_branch_dst_reg_39_41 () (_ BitVec 64))
(declare-fun other_branch_dst_reg_39_40 () (_ BitVec 64))
(declare-fun other_branch_dst_reg_39_39 () (_ BitVec 64))
(declare-fun other_branch_dst_reg_39_38 () (_ BitVec 64))
(declare-fun other_branch_dst_reg_39_37 () (_ BitVec 32))
(declare-fun other_branch_dst_reg_39_36 () (_ BitVec 32))
(declare-fun src_reg_39_35 () (_ BitVec 8))
(declare-fun src_reg_39_34 () (_ BitVec 32))
(declare-fun src_reg_39_33 () (_ BitVec 32))
(declare-fun src_reg_39_32 () (_ BitVec 32))
(declare-fun src_reg_39_31 () (_ BitVec 32))
(declare-fun src_reg_39_30 () (_ BitVec 32))
(declare-fun src_reg_39_19 () (_ BitVec 32))
(declare-fun src_reg_39_18 () (_ BitVec 32))
(declare-fun dst_reg_39_17 () (_ BitVec 8))
(declare-fun dst_reg_39_16 () (_ BitVec 32))
(declare-fun dst_reg_39_15 () (_ BitVec 32))
(declare-fun dst_reg_39_14 () (_ BitVec 32))
(declare-fun dst_reg_39_13 () (_ BitVec 32))
(declare-fun dst_reg_39_12 () (_ BitVec 32))
(declare-fun dst_reg_39_1 () (_ BitVec 32))
(declare-fun dst_reg_39_0 () (_ BitVec 32))
(declare-fun cmp.not.i_39_106 () (_ BitVec 1))
(declare-fun i.i35_39_104 () (_ BitVec 32))
(declare-fun cmp2.not.i_39_109 () (_ BitVec 1))
(declare-fun i1.i_39_107 () (_ BitVec 32))
(declare-fun i349.i480.i_39_124 () (_ BitVec 32))
(declare-fun cond279.i482.i_39_126 () (_ BitVec 32))
(declare-fun i348.i478.i_39_123 () (_ BitVec 32))
(declare-fun cmp274.i481.i_39_125 () (_ BitVec 1))
(declare-fun i347.i474.i_39_120 () (_ BitVec 32))
(declare-fun cond269.i476.i_39_122 () (_ BitVec 32))
(declare-fun i346.i472.i_39_119 () (_ BitVec 32))
(declare-fun cmp264.i475.i_39_121 () (_ BitVec 1))
(declare-fun i357.i.i_39_116 () (_ BitVec 32))
(declare-fun cond324.i.i_39_118 () (_ BitVec 32))
(declare-fun add.i.i_39_115 () (_ BitVec 32))
(declare-fun cmp319.i.i_39_117 () (_ BitVec 1))
(declare-fun sub.i.i_39_111 () (_ BitVec 32))
(declare-fun cond314.i.i_39_113 () (_ BitVec 32))
(declare-fun cmp309.i.i_39_112 () (_ BitVec 1))
(declare-fun other_branch_src_reg_39_270 () (_ BitVec 8))
(declare-fun other_branch_src_reg_39_198 () (_ BitVec 8))
(declare-fun other_branch_src_reg_39_269 () (_ BitVec 32))
(declare-fun other_branch_src_reg_39_197 () (_ BitVec 32))
(declare-fun other_branch_src_reg_39_268 () (_ BitVec 32))
(declare-fun other_branch_src_reg_39_196 () (_ BitVec 32))
(declare-fun other_branch_src_reg_39_267 () (_ BitVec 32))
(declare-fun other_branch_src_reg_39_195 () (_ BitVec 32))
(declare-fun other_branch_src_reg_39_266 () (_ BitVec 32))
(declare-fun other_branch_src_reg_39_194 () (_ BitVec 32))
(declare-fun other_branch_src_reg_39_265 () (_ BitVec 32))
(declare-fun other_branch_src_reg_39_193 () (_ BitVec 32))
(declare-fun other_branch_src_reg_39_264 () (_ BitVec 32))
(declare-fun other_branch_src_reg_39_192 () (_ BitVec 32))
(declare-fun other_branch_src_reg_39_263 () (_ BitVec 32))
(declare-fun other_branch_src_reg_39_191 () (_ BitVec 32))
(declare-fun other_branch_src_reg_39_262 () (_ BitVec 32))
(declare-fun other_branch_src_reg_39_190 () (_ BitVec 32))
(declare-fun other_branch_src_reg_39_261 () (_ BitVec 32))
(declare-fun other_branch_src_reg_39_189 () (_ BitVec 32))
(declare-fun other_branch_src_reg_39_260 () (_ BitVec 64))
(declare-fun other_branch_src_reg_39_188 () (_ BitVec 64))
(declare-fun other_branch_src_reg_39_259 () (_ BitVec 64))
(declare-fun other_branch_src_reg_39_187 () (_ BitVec 64))
(declare-fun other_branch_src_reg_39_258 () (_ BitVec 64))
(declare-fun other_branch_src_reg_39_186 () (_ BitVec 64))
(declare-fun other_branch_src_reg_39_257 () (_ BitVec 64))
(declare-fun other_branch_src_reg_39_185 () (_ BitVec 64))
(declare-fun other_branch_src_reg_39_256 () (_ BitVec 64))
(declare-fun other_branch_src_reg_39_184 () (_ BitVec 64))
(declare-fun other_branch_src_reg_39_255 () (_ BitVec 64))
(declare-fun other_branch_src_reg_39_183 () (_ BitVec 64))
(declare-fun other_branch_src_reg_39_254 () (_ BitVec 32))
(declare-fun other_branch_src_reg_39_182 () (_ BitVec 32))
(declare-fun other_branch_src_reg_39_253 () (_ BitVec 32))
(declare-fun other_branch_src_reg_39_181 () (_ BitVec 32))
(declare-fun other_branch_dst_reg_39_252 () (_ BitVec 8))
(declare-fun other_branch_dst_reg_39_180 () (_ BitVec 8))
(declare-fun other_branch_dst_reg_39_251 () (_ BitVec 32))
(declare-fun other_branch_dst_reg_39_179 () (_ BitVec 32))
(declare-fun other_branch_dst_reg_39_250 () (_ BitVec 32))
(declare-fun other_branch_dst_reg_39_178 () (_ BitVec 32))
(declare-fun other_branch_dst_reg_39_249 () (_ BitVec 32))
(declare-fun other_branch_dst_reg_39_177 () (_ BitVec 32))
(declare-fun other_branch_dst_reg_39_248 () (_ BitVec 32))
(declare-fun other_branch_dst_reg_39_176 () (_ BitVec 32))
(declare-fun other_branch_dst_reg_39_247 () (_ BitVec 32))
(declare-fun other_branch_dst_reg_39_175 () (_ BitVec 32))
(declare-fun other_branch_dst_reg_39_246 () (_ BitVec 32))
(declare-fun other_branch_dst_reg_39_174 () (_ BitVec 32))
(declare-fun other_branch_dst_reg_39_245 () (_ BitVec 32))
(declare-fun other_branch_dst_reg_39_173 () (_ BitVec 32))
(declare-fun other_branch_dst_reg_39_244 () (_ BitVec 32))
(declare-fun other_branch_dst_reg_39_172 () (_ BitVec 32))
(declare-fun other_branch_dst_reg_39_243 () (_ BitVec 32))
(declare-fun other_branch_dst_reg_39_171 () (_ BitVec 32))
(declare-fun other_branch_dst_reg_39_242 () (_ BitVec 64))
(declare-fun other_branch_dst_reg_39_170 () (_ BitVec 64))
(declare-fun other_branch_dst_reg_39_241 () (_ BitVec 64))
(declare-fun other_branch_dst_reg_39_169 () (_ BitVec 64))
(declare-fun other_branch_dst_reg_39_240 () (_ BitVec 64))
(declare-fun other_branch_dst_reg_39_168 () (_ BitVec 64))
(declare-fun other_branch_dst_reg_39_239 () (_ BitVec 64))
(declare-fun other_branch_dst_reg_39_167 () (_ BitVec 64))
(declare-fun other_branch_dst_reg_39_238 () (_ BitVec 64))
(declare-fun other_branch_dst_reg_39_166 () (_ BitVec 64))
(declare-fun other_branch_dst_reg_39_237 () (_ BitVec 64))
(declare-fun other_branch_dst_reg_39_165 () (_ BitVec 64))
(declare-fun other_branch_dst_reg_39_236 () (_ BitVec 32))
(declare-fun other_branch_dst_reg_39_164 () (_ BitVec 32))
(declare-fun other_branch_dst_reg_39_235 () (_ BitVec 32))
(declare-fun other_branch_dst_reg_39_163 () (_ BitVec 32))
(declare-fun src_reg_39_234 () (_ BitVec 8))
(declare-fun src_reg_39_162 () (_ BitVec 8))
(declare-fun src_reg_39_233 () (_ BitVec 32))
(declare-fun src_reg_39_161 () (_ BitVec 32))
(declare-fun src_reg_39_232 () (_ BitVec 32))
(declare-fun src_reg_39_160 () (_ BitVec 32))
(declare-fun src_reg_39_231 () (_ BitVec 32))
(declare-fun src_reg_39_159 () (_ BitVec 32))
(declare-fun src_reg_39_230 () (_ BitVec 32))
(declare-fun src_reg_39_158 () (_ BitVec 32))
(declare-fun src_reg_39_229 () (_ BitVec 32))
(declare-fun src_reg_39_157 () (_ BitVec 32))
(declare-fun src_reg_39_228 () (_ BitVec 32))
(declare-fun src_reg_39_156 () (_ BitVec 32))
(declare-fun src_reg_39_227 () (_ BitVec 32))
(declare-fun src_reg_39_155 () (_ BitVec 32))
(declare-fun src_reg_39_226 () (_ BitVec 32))
(declare-fun src_reg_39_154 () (_ BitVec 32))
(declare-fun src_reg_39_225 () (_ BitVec 32))
(declare-fun src_reg_39_153 () (_ BitVec 32))
(declare-fun src_reg_39_224 () (_ BitVec 64))
(declare-fun src_reg_39_152 () (_ BitVec 64))
(declare-fun src_reg_39_223 () (_ BitVec 64))
(declare-fun src_reg_39_151 () (_ BitVec 64))
(declare-fun src_reg_39_222 () (_ BitVec 64))
(declare-fun src_reg_39_150 () (_ BitVec 64))
(declare-fun src_reg_39_221 () (_ BitVec 64))
(declare-fun src_reg_39_149 () (_ BitVec 64))
(declare-fun src_reg_39_220 () (_ BitVec 64))
(declare-fun src_reg_39_148 () (_ BitVec 64))
(declare-fun src_reg_39_219 () (_ BitVec 64))
(declare-fun src_reg_39_147 () (_ BitVec 64))
(declare-fun src_reg_39_218 () (_ BitVec 32))
(declare-fun src_reg_39_146 () (_ BitVec 32))
(declare-fun src_reg_39_217 () (_ BitVec 32))
(declare-fun src_reg_39_145 () (_ BitVec 32))
(declare-fun dst_reg_39_216 () (_ BitVec 8))
(declare-fun dst_reg_39_144 () (_ BitVec 8))
(declare-fun dst_reg_39_215 () (_ BitVec 32))
(declare-fun dst_reg_39_143 () (_ BitVec 32))
(declare-fun dst_reg_39_214 () (_ BitVec 32))
(declare-fun dst_reg_39_142 () (_ BitVec 32))
(declare-fun dst_reg_39_213 () (_ BitVec 32))
(declare-fun dst_reg_39_141 () (_ BitVec 32))
(declare-fun dst_reg_39_212 () (_ BitVec 32))
(declare-fun dst_reg_39_140 () (_ BitVec 32))
(declare-fun dst_reg_39_211 () (_ BitVec 32))
(declare-fun dst_reg_39_139 () (_ BitVec 32))
(declare-fun dst_reg_39_210 () (_ BitVec 32))
(declare-fun dst_reg_39_138 () (_ BitVec 32))
(declare-fun dst_reg_39_209 () (_ BitVec 32))
(declare-fun dst_reg_39_137 () (_ BitVec 32))
(declare-fun dst_reg_39_208 () (_ BitVec 32))
(declare-fun dst_reg_39_136 () (_ BitVec 32))
(declare-fun dst_reg_39_207 () (_ BitVec 32))
(declare-fun dst_reg_39_135 () (_ BitVec 32))
(declare-fun dst_reg_39_206 () (_ BitVec 64))
(declare-fun dst_reg_39_134 () (_ BitVec 64))
(declare-fun dst_reg_39_205 () (_ BitVec 64))
(declare-fun dst_reg_39_133 () (_ BitVec 64))
(declare-fun dst_reg_39_204 () (_ BitVec 64))
(declare-fun dst_reg_39_132 () (_ BitVec 64))
(declare-fun dst_reg_39_203 () (_ BitVec 64))
(declare-fun dst_reg_39_131 () (_ BitVec 64))
(declare-fun dst_reg_39_202 () (_ BitVec 64))
(declare-fun dst_reg_39_130 () (_ BitVec 64))
(declare-fun dst_reg_39_201 () (_ BitVec 64))
(declare-fun dst_reg_39_129 () (_ BitVec 64))
(declare-fun dst_reg_39_200 () (_ BitVec 32))
(declare-fun dst_reg_39_128 () (_ BitVec 32))
(declare-fun dst_reg_39_199 () (_ BitVec 32))
(declare-fun dst_reg_39_127 () (_ BitVec 32))
(assert (let ((a!1 (and (= cmp2.not.i_39_109 #b1)
                (and (= cmp.not.i_39_106 #b1) (= narrow_39_103 #b0))))
      (a!2 (and (= cmp2.not.i_39_109 #b0)
                (and (= cmp.not.i_39_106 #b1) (= narrow_39_103 #b0))))
      (a!3 (and (= i.i2_39_85 other_branch_src_reg_39_181)
                (= other_branch_src_reg_39_55 other_branch_src_reg_39_182)
                (= i21.i5_39_86 other_branch_src_reg_39_183)
                (= i22.i8_39_87 other_branch_src_reg_39_184)
                (= i23.i11_39_88 other_branch_src_reg_39_185)
                (= i24.i14_39_89 other_branch_src_reg_39_186)
                (= i25.i17_39_90 other_branch_src_reg_39_187)
                (= i26.i20_39_91 other_branch_src_reg_39_188)
                (= i27.i23_39_92 other_branch_src_reg_39_189)
                (= i28.i26_39_93 other_branch_src_reg_39_190)
                (= i29.i29_39_94 other_branch_src_reg_39_191)
                (= i30.i32_39_95 other_branch_src_reg_39_192)
                (= other_branch_src_reg_39_66 other_branch_src_reg_39_193)
                (= other_branch_src_reg_39_67 other_branch_src_reg_39_194)
                (= other_branch_src_reg_39_68 other_branch_src_reg_39_195)
                (= other_branch_src_reg_39_69 other_branch_src_reg_39_196)
                (= other_branch_src_reg_39_70 other_branch_src_reg_39_197)
                (= other_branch_src_reg_39_71 other_branch_src_reg_39_198)
                (= i.i_39_74 other_branch_dst_reg_39_163)
                (= other_branch_dst_reg_39_37 other_branch_dst_reg_39_164)
                (= i21.i_39_75 other_branch_dst_reg_39_165)
                (= i22.i_39_76 other_branch_dst_reg_39_166)
                (= i23.i_39_77 other_branch_dst_reg_39_167)
                (= i24.i_39_78 other_branch_dst_reg_39_168)
                (= i25.i_39_79 other_branch_dst_reg_39_169)
                (= i26.i_39_80 other_branch_dst_reg_39_170)
                (= i27.i_39_81 other_branch_dst_reg_39_171)
                (= i28.i_39_82 other_branch_dst_reg_39_172)
                (= i29.i_39_83 other_branch_dst_reg_39_173)
                (= i30.i_39_84 other_branch_dst_reg_39_174)
                (= other_branch_dst_reg_39_48 other_branch_dst_reg_39_175)
                (= other_branch_dst_reg_39_49 other_branch_dst_reg_39_176)
                (= other_branch_dst_reg_39_50 other_branch_dst_reg_39_177)
                (= other_branch_dst_reg_39_51 other_branch_dst_reg_39_178)
                (= other_branch_dst_reg_39_52 other_branch_dst_reg_39_179)
                (= other_branch_dst_reg_39_53 other_branch_dst_reg_39_180)
                (= #x00000001 src_reg_39_145)
                (= src_reg_39_19 src_reg_39_146)
                (= src_reg_39_20 src_reg_39_147)
                (= src_reg_39_21 src_reg_39_148)
                (= src_reg_39_22 src_reg_39_149)
                (= src_reg_39_23 src_reg_39_150)
                (= src_reg_39_24 src_reg_39_151)
                (= src_reg_39_25 src_reg_39_152)
                (= src_reg_39_26 src_reg_39_153)
                (= src_reg_39_27 src_reg_39_154)
                (= src_reg_39_28 src_reg_39_155)
                (= src_reg_39_29 src_reg_39_156)
                (= src_reg_39_30 src_reg_39_157)
                (= src_reg_39_31 src_reg_39_158)
                (= src_reg_39_32 src_reg_39_159)
                (= src_reg_39_33 src_reg_39_160)
                (= src_reg_39_34 src_reg_39_161)
                (= src_reg_39_35 src_reg_39_162)
                (= #x00000001 dst_reg_39_127)
                (= dst_reg_39_1 dst_reg_39_128)
                (= dst_reg_39_2 dst_reg_39_129)
                (= dst_reg_39_3 dst_reg_39_130)
                (= dst_reg_39_4 dst_reg_39_131)
                (= dst_reg_39_5 dst_reg_39_132)
                (= dst_reg_39_6 dst_reg_39_133)
                (= dst_reg_39_7 dst_reg_39_134)
                (= dst_reg_39_8 dst_reg_39_135)
                (= dst_reg_39_9 dst_reg_39_136)
                (= dst_reg_39_10 dst_reg_39_137)
                (= dst_reg_39_11 dst_reg_39_138)
                (= dst_reg_39_12 dst_reg_39_139)
                (= dst_reg_39_13 dst_reg_39_140)
                (= dst_reg_39_14 dst_reg_39_141)
                (= dst_reg_39_15 dst_reg_39_142)
                (= dst_reg_39_16 dst_reg_39_143)
                (= dst_reg_39_17 dst_reg_39_144)))
      (a!7 (=> (and (= cmp.not.i_39_106 #b1) (= narrow_39_103 #b0))
               (and (= #x00000001 i1.i_39_107)
                    (ite (= i1.i_39_107 #x00000001)
                         (= cmp2.not.i_39_109 #b1)
                         (= cmp2.not.i_39_109 #b0)))))
      (a!8 (=> (= narrow_39_103 #b0)
               (and (= #x00000001 i.i35_39_104)
                    (ite (= i.i35_39_104 #x00000001)
                         (= cmp.not.i_39_106 #b1)
                         (= cmp.not.i_39_106 #b0))))))
(let ((a!4 (and (=> (= narrow_39_103 #b1) a!3)
                (=> (and (= cmp.not.i_39_106 #b0) (= narrow_39_103 #b0)) a!3)
                (=> a!2 a!3)
                (=> a!1
                    (and (= i.i2_39_85 other_branch_src_reg_39_181)
                         (= other_branch_src_reg_39_55
                            other_branch_src_reg_39_182)
                         (= i21.i5_39_86 other_branch_src_reg_39_183)
                         (= i22.i8_39_87 other_branch_src_reg_39_184)
                         (= i23.i11_39_88 other_branch_src_reg_39_185)
                         (= i24.i14_39_89 other_branch_src_reg_39_186)
                         (= i25.i17_39_90 other_branch_src_reg_39_187)
                         (= i26.i20_39_91 other_branch_src_reg_39_188)
                         (= i27.i23_39_92 other_branch_src_reg_39_189)
                         (= i28.i26_39_93 other_branch_src_reg_39_190)
                         (= i29.i29_39_94 other_branch_src_reg_39_191)
                         (= cond269.i476.i_39_122 other_branch_src_reg_39_192)
                         (= other_branch_src_reg_39_66
                            other_branch_src_reg_39_193)
                         (= other_branch_src_reg_39_67
                            other_branch_src_reg_39_194)
                         (= other_branch_src_reg_39_68
                            other_branch_src_reg_39_195)
                         (= other_branch_src_reg_39_69
                            other_branch_src_reg_39_196)
                         (= other_branch_src_reg_39_70
                            other_branch_src_reg_39_197)
                         (= other_branch_src_reg_39_71
                            other_branch_src_reg_39_198)
                         (= i.i_39_74 other_branch_dst_reg_39_163)
                         (= other_branch_dst_reg_39_37
                            other_branch_dst_reg_39_164)
                         (= i21.i_39_75 other_branch_dst_reg_39_165)
                         (= i22.i_39_76 other_branch_dst_reg_39_166)
                         (= i23.i_39_77 other_branch_dst_reg_39_167)
                         (= i24.i_39_78 other_branch_dst_reg_39_168)
                         (= i25.i_39_79 other_branch_dst_reg_39_169)
                         (= i26.i_39_80 other_branch_dst_reg_39_170)
                         (= i27.i_39_81 other_branch_dst_reg_39_171)
                         (= i28.i_39_82 other_branch_dst_reg_39_172)
                         (= cond279.i482.i_39_126 other_branch_dst_reg_39_173)
                         (= i30.i_39_84 other_branch_dst_reg_39_174)
                         (= other_branch_dst_reg_39_48
                            other_branch_dst_reg_39_175)
                         (= other_branch_dst_reg_39_49
                            other_branch_dst_reg_39_176)
                         (= other_branch_dst_reg_39_50
                            other_branch_dst_reg_39_177)
                         (= other_branch_dst_reg_39_51
                            other_branch_dst_reg_39_178)
                         (= other_branch_dst_reg_39_52
                            other_branch_dst_reg_39_179)
                         (= other_branch_dst_reg_39_53
                            other_branch_dst_reg_39_180)
                         (= #x00000001 src_reg_39_145)
                         (= src_reg_39_19 src_reg_39_146)
                         (= src_reg_39_20 src_reg_39_147)
                         (= src_reg_39_21 src_reg_39_148)
                         (= src_reg_39_22 src_reg_39_149)
                         (= src_reg_39_23 src_reg_39_150)
                         (= src_reg_39_24 src_reg_39_151)
                         (= src_reg_39_25 src_reg_39_152)
                         (= src_reg_39_26 src_reg_39_153)
                         (= src_reg_39_27 src_reg_39_154)
                         (= cond324.i.i_39_118 src_reg_39_155)
                         (= src_reg_39_29 src_reg_39_156)
                         (= src_reg_39_30 src_reg_39_157)
                         (= src_reg_39_31 src_reg_39_158)
                         (= src_reg_39_32 src_reg_39_159)
                         (= src_reg_39_33 src_reg_39_160)
                         (= src_reg_39_34 src_reg_39_161)
                         (= src_reg_39_35 src_reg_39_162)
                         (= #x00000001 dst_reg_39_127)
                         (= dst_reg_39_1 dst_reg_39_128)
                         (= dst_reg_39_2 dst_reg_39_129)
                         (= dst_reg_39_3 dst_reg_39_130)
                         (= dst_reg_39_4 dst_reg_39_131)
                         (= dst_reg_39_5 dst_reg_39_132)
                         (= dst_reg_39_6 dst_reg_39_133)
                         (= dst_reg_39_7 dst_reg_39_134)
                         (= dst_reg_39_8 dst_reg_39_135)
                         (= dst_reg_39_9 dst_reg_39_136)
                         (= dst_reg_39_10 dst_reg_39_137)
                         (= cond314.i.i_39_113 dst_reg_39_138)
                         (= dst_reg_39_12 dst_reg_39_139)
                         (= dst_reg_39_13 dst_reg_39_140)
                         (= dst_reg_39_14 dst_reg_39_141)
                         (= dst_reg_39_15 dst_reg_39_142)
                         (= dst_reg_39_16 dst_reg_39_143)
                         (= dst_reg_39_17 dst_reg_39_144)))
                (= dst_reg_39_127 dst_reg_39_199)
                (= dst_reg_39_128 dst_reg_39_200)
                (= dst_reg_39_129 dst_reg_39_201)
                (= dst_reg_39_130 dst_reg_39_202)
                (= dst_reg_39_131 dst_reg_39_203)
                (= dst_reg_39_132 dst_reg_39_204)
                (= dst_reg_39_133 dst_reg_39_205)
                (= dst_reg_39_134 dst_reg_39_206)
                (= dst_reg_39_135 dst_reg_39_207)
                (= dst_reg_39_136 dst_reg_39_208)
                (= dst_reg_39_137 dst_reg_39_209)
                (= dst_reg_39_138 dst_reg_39_210)
                (= dst_reg_39_139 dst_reg_39_211)
                (= dst_reg_39_140 dst_reg_39_212)
                (= dst_reg_39_141 dst_reg_39_213)
                (= dst_reg_39_142 dst_reg_39_214)
                (= dst_reg_39_143 dst_reg_39_215)
                (= dst_reg_39_144 dst_reg_39_216)
                (= src_reg_39_145 src_reg_39_217)
                (= src_reg_39_146 src_reg_39_218)
                (= src_reg_39_147 src_reg_39_219)
                (= src_reg_39_148 src_reg_39_220)
                (= src_reg_39_149 src_reg_39_221)
                (= src_reg_39_150 src_reg_39_222)
                (= src_reg_39_151 src_reg_39_223)
                (= src_reg_39_152 src_reg_39_224)
                (= src_reg_39_153 src_reg_39_225)
                (= src_reg_39_154 src_reg_39_226)
                (= src_reg_39_155 src_reg_39_227)
                (= src_reg_39_156 src_reg_39_228)
                (= src_reg_39_157 src_reg_39_229)
                (= src_reg_39_158 src_reg_39_230)
                (= src_reg_39_159 src_reg_39_231)
                (= src_reg_39_160 src_reg_39_232)
                (= src_reg_39_161 src_reg_39_233)
                (= src_reg_39_162 src_reg_39_234)
                (= other_branch_dst_reg_39_163 other_branch_dst_reg_39_235)
                (= other_branch_dst_reg_39_164 other_branch_dst_reg_39_236)
                (= other_branch_dst_reg_39_165 other_branch_dst_reg_39_237)
                (= other_branch_dst_reg_39_166 other_branch_dst_reg_39_238)
                (= other_branch_dst_reg_39_167 other_branch_dst_reg_39_239)
                (= other_branch_dst_reg_39_168 other_branch_dst_reg_39_240)
                (= other_branch_dst_reg_39_169 other_branch_dst_reg_39_241)
                (= other_branch_dst_reg_39_170 other_branch_dst_reg_39_242)
                (= other_branch_dst_reg_39_171 other_branch_dst_reg_39_243)
                (= other_branch_dst_reg_39_172 other_branch_dst_reg_39_244)
                (= other_branch_dst_reg_39_173 other_branch_dst_reg_39_245)
                (= other_branch_dst_reg_39_174 other_branch_dst_reg_39_246)
                (= other_branch_dst_reg_39_175 other_branch_dst_reg_39_247)
                (= other_branch_dst_reg_39_176 other_branch_dst_reg_39_248)
                (= other_branch_dst_reg_39_177 other_branch_dst_reg_39_249)
                (= other_branch_dst_reg_39_178 other_branch_dst_reg_39_250)
                (= other_branch_dst_reg_39_179 other_branch_dst_reg_39_251)
                (= other_branch_dst_reg_39_180 other_branch_dst_reg_39_252)
                (= other_branch_src_reg_39_181 other_branch_src_reg_39_253)
                (= other_branch_src_reg_39_182 other_branch_src_reg_39_254)
                (= other_branch_src_reg_39_183 other_branch_src_reg_39_255)
                (= other_branch_src_reg_39_184 other_branch_src_reg_39_256)
                (= other_branch_src_reg_39_185 other_branch_src_reg_39_257)
                (= other_branch_src_reg_39_186 other_branch_src_reg_39_258)
                (= other_branch_src_reg_39_187 other_branch_src_reg_39_259)
                (= other_branch_src_reg_39_188 other_branch_src_reg_39_260)
                (= other_branch_src_reg_39_189 other_branch_src_reg_39_261)
                (= other_branch_src_reg_39_190 other_branch_src_reg_39_262)
                (= other_branch_src_reg_39_191 other_branch_src_reg_39_263)
                (= other_branch_src_reg_39_192 other_branch_src_reg_39_264)
                (= other_branch_src_reg_39_193 other_branch_src_reg_39_265)
                (= other_branch_src_reg_39_194 other_branch_src_reg_39_266)
                (= other_branch_src_reg_39_195 other_branch_src_reg_39_267)
                (= other_branch_src_reg_39_196 other_branch_src_reg_39_268)
                (= other_branch_src_reg_39_197 other_branch_src_reg_39_269)
                (= other_branch_src_reg_39_198 other_branch_src_reg_39_270)))
      (a!6 (=> a!1
               (and (= sub.i.i_39_111 (bvadd i142.i.i_39_99 #xffffffff))
                    (ite (bvult i134.i.i_39_97 sub.i.i_39_111)
                         (= cmp309.i.i_39_112 #b1)
                         (= cmp309.i.i_39_112 #b0))
                    (ite (= cmp309.i.i_39_112 #b1)
                         (= cond314.i.i_39_113 i134.i.i_39_97)
                         (= cond314.i.i_39_113 sub.i.i_39_111))
                    (= add.i.i_39_115 (bvadd i132.i.i_39_96 #x00000001))
                    (= src_reg_39_28 i357.i.i_39_116)
                    (ite (bvugt add.i.i_39_115 i357.i.i_39_116)
                         (= cmp319.i.i_39_117 #b1)
                         (= cmp319.i.i_39_117 #b0))
                    (ite (= cmp319.i.i_39_117 #b1)
                         (= cond324.i.i_39_118 add.i.i_39_115)
                         (= cond324.i.i_39_118 i357.i.i_39_116))
                    (= i30.i32_39_95 i346.i472.i_39_119)
                    (= i30.i_39_84 i347.i474.i_39_120)
                    (ite (bvult i346.i472.i_39_119 i347.i474.i_39_120)
                         (= cmp264.i475.i_39_121 #b1)
                         (= cmp264.i475.i_39_121 #b0))
                    (ite (= cmp264.i475.i_39_121 #b1)
                         (= cond269.i476.i_39_122 i346.i472.i_39_119)
                         (= cond269.i476.i_39_122 i347.i474.i_39_120))
                    (= i29.i29_39_94 i348.i478.i_39_123)
                    (= i29.i_39_83 i349.i480.i_39_124)
                    (ite (bvugt i348.i478.i_39_123 i349.i480.i_39_124)
                         (= cmp274.i481.i_39_125 #b1)
                         (= cmp274.i481.i_39_125 #b0))
                    (ite (= cmp274.i481.i_39_125 #b1)
                         (= cond279.i482.i_39_126 i348.i478.i_39_123)
                         (= cond279.i482.i_39_126 i349.i480.i_39_124))))))
(let ((a!5 (=> (or a!1
                   a!2
                   (and (= cmp.not.i_39_106 #b0) (= narrow_39_103 #b0))
                   (= narrow_39_103 #b1))
               a!4)))
  (and a!5
       a!6
       a!7
       a!8
       (= dst_reg_39_0 dst_reg_39_0)
       (= dst_reg_39_1 dst_reg_39_1)
       (= dst_reg_39_2 dst_reg_39_2)
       (= dst_reg_39_3 dst_reg_39_3)
       (= dst_reg_39_4 dst_reg_39_4)
       (= dst_reg_39_5 dst_reg_39_5)
       (= dst_reg_39_6 dst_reg_39_6)
       (= dst_reg_39_7 dst_reg_39_7)
       (= dst_reg_39_8 dst_reg_39_8)
       (= dst_reg_39_9 dst_reg_39_9)
       (= dst_reg_39_10 dst_reg_39_10)
       (= dst_reg_39_11 dst_reg_39_11)
       (= dst_reg_39_12 dst_reg_39_12)
       (= dst_reg_39_13 dst_reg_39_13)
       (= dst_reg_39_14 dst_reg_39_14)
       (= dst_reg_39_15 dst_reg_39_15)
       (= dst_reg_39_16 dst_reg_39_16)
       (= dst_reg_39_17 dst_reg_39_17)
       (= src_reg_39_18 src_reg_39_18)
       (= src_reg_39_19 src_reg_39_19)
       (= src_reg_39_20 src_reg_39_20)
       (= src_reg_39_21 src_reg_39_21)
       (= src_reg_39_22 src_reg_39_22)
       (= src_reg_39_23 src_reg_39_23)
       (= src_reg_39_24 src_reg_39_24)
       (= src_reg_39_25 src_reg_39_25)
       (= src_reg_39_26 src_reg_39_26)
       (= src_reg_39_27 src_reg_39_27)
       (= src_reg_39_28 src_reg_39_28)
       (= src_reg_39_29 src_reg_39_29)
       (= src_reg_39_30 src_reg_39_30)
       (= src_reg_39_31 src_reg_39_31)
       (= src_reg_39_32 src_reg_39_32)
       (= src_reg_39_33 src_reg_39_33)
       (= src_reg_39_34 src_reg_39_34)
       (= src_reg_39_35 src_reg_39_35)
       (= other_branch_dst_reg_39_36 other_branch_dst_reg_39_36)
       (= other_branch_dst_reg_39_37 other_branch_dst_reg_39_37)
       (= other_branch_dst_reg_39_38 other_branch_dst_reg_39_38)
       (= other_branch_dst_reg_39_39 other_branch_dst_reg_39_39)
       (= other_branch_dst_reg_39_40 other_branch_dst_reg_39_40)
       (= other_branch_dst_reg_39_41 other_branch_dst_reg_39_41)
       (= other_branch_dst_reg_39_42 other_branch_dst_reg_39_42)
       (= other_branch_dst_reg_39_43 other_branch_dst_reg_39_43)
       (= other_branch_dst_reg_39_44 other_branch_dst_reg_39_44)
       (= other_branch_dst_reg_39_45 other_branch_dst_reg_39_45)
       (= other_branch_dst_reg_39_46 other_branch_dst_reg_39_46)
       (= other_branch_dst_reg_39_47 other_branch_dst_reg_39_47)
       (= other_branch_dst_reg_39_48 other_branch_dst_reg_39_48)
       (= other_branch_dst_reg_39_49 other_branch_dst_reg_39_49)
       (= other_branch_dst_reg_39_50 other_branch_dst_reg_39_50)
       (= other_branch_dst_reg_39_51 other_branch_dst_reg_39_51)
       (= other_branch_dst_reg_39_52 other_branch_dst_reg_39_52)
       (= other_branch_dst_reg_39_53 other_branch_dst_reg_39_53)
       (= other_branch_src_reg_39_54 other_branch_src_reg_39_54)
       (= other_branch_src_reg_39_55 other_branch_src_reg_39_55)
       (= other_branch_src_reg_39_56 other_branch_src_reg_39_56)
       (= other_branch_src_reg_39_57 other_branch_src_reg_39_57)
       (= other_branch_src_reg_39_58 other_branch_src_reg_39_58)
       (= other_branch_src_reg_39_59 other_branch_src_reg_39_59)
       (= other_branch_src_reg_39_60 other_branch_src_reg_39_60)
       (= other_branch_src_reg_39_61 other_branch_src_reg_39_61)
       (= other_branch_src_reg_39_62 other_branch_src_reg_39_62)
       (= other_branch_src_reg_39_63 other_branch_src_reg_39_63)
       (= other_branch_src_reg_39_64 other_branch_src_reg_39_64)
       (= other_branch_src_reg_39_65 other_branch_src_reg_39_65)
       (= other_branch_src_reg_39_66 other_branch_src_reg_39_66)
       (= other_branch_src_reg_39_67 other_branch_src_reg_39_67)
       (= other_branch_src_reg_39_68 other_branch_src_reg_39_68)
       (= other_branch_src_reg_39_69 other_branch_src_reg_39_69)
       (= other_branch_src_reg_39_70 other_branch_src_reg_39_70)
       (= other_branch_src_reg_39_71 other_branch_src_reg_39_71)
       (= #x00000001 i.i_39_74)
       (= dst_reg_39_2 i21.i_39_75)
       (= dst_reg_39_3 i22.i_39_76)
       (= dst_reg_39_4 i23.i_39_77)
       (= dst_reg_39_5 i24.i_39_78)
       (= dst_reg_39_6 i25.i_39_79)
       (= dst_reg_39_7 i26.i_39_80)
       (= dst_reg_39_8 i27.i_39_81)
       (= dst_reg_39_9 i28.i_39_82)
       (= dst_reg_39_10 i29.i_39_83)
       (= dst_reg_39_11 i30.i_39_84)
       (= #x00000001 i.i2_39_85)
       (= src_reg_39_20 i21.i5_39_86)
       (= src_reg_39_21 i22.i8_39_87)
       (= src_reg_39_22 i23.i11_39_88)
       (= src_reg_39_23 i24.i14_39_89)
       (= src_reg_39_24 i25.i17_39_90)
       (= src_reg_39_25 i26.i20_39_91)
       (= src_reg_39_26 i27.i23_39_92)
       (= src_reg_39_27 i28.i26_39_93)
       (= src_reg_39_28 i29.i29_39_94)
       (= src_reg_39_29 i30.i32_39_95)
       (= dst_reg_39_10 i132.i.i_39_96)
       (= dst_reg_39_11 i134.i.i_39_97)
       (= src_reg_39_28 i140.i.i_39_98)
       (= src_reg_39_29 i142.i.i_39_99)
       (ite (bvuge i132.i.i_39_96 i142.i.i_39_99)
            (= cmp231.not.i.i_39_100 #b1)
            (= cmp231.not.i.i_39_100 #b0))
       (ite (bvult i134.i.i_39_97 i140.i.i_39_98)
            (= cmp235.i.i_39_101 #b1)
            (= cmp235.i.i_39_101 #b0))
       (ite (= cmp231.not.i.i_39_100 #b1)
            (= narrow_39_103 #b1)
            (= narrow_39_103 cmp235.i.i_39_101)))))))

;{"dst_reg":["dst_reg_39_0","dst_reg_39_1",[""],["dst_reg_39_2","dst_reg_39_3"],"dst_reg_39_4","dst_reg_39_5","dst_reg_39_6","dst_reg_39_7","dst_reg_39_8","dst_reg_39_9","dst_reg_39_10","dst_reg_39_11","dst_reg_39_12","dst_reg_39_13","","","dst_reg_39_14","dst_reg_39_15","dst_reg_39_16"],"other_branch_dst_reg":["other_branch_dst_reg_39_36","other_branch_dst_reg_39_37",[""],["other_branch_dst_reg_39_38","other_branch_dst_reg_39_39"],"other_branch_dst_reg_39_40","other_branch_dst_reg_39_41","other_branch_dst_reg_39_42","other_branch_dst_reg_39_43","other_branch_dst_reg_39_44","other_branch_dst_reg_39_45","other_branch_dst_reg_39_46","other_branch_dst_reg_39_47","other_branch_dst_reg_39_48","other_branch_dst_reg_39_49","","","other_branch_dst_reg_39_50","other_branch_dst_reg_39_51","other_branch_dst_reg_39_52"],"other_branch_src_reg":["other_branch_src_reg_39_54","other_branch_src_reg_39_55",[""],["other_branch_src_reg_39_56","other_branch_src_reg_39_57"],"other_branch_src_reg_39_58","other_branch_src_reg_39_59","other_branch_src_reg_39_60","other_branch_src_reg_39_61","other_branch_src_reg_39_62","other_branch_src_reg_39_63","other_branch_src_reg_39_64","other_branch_src_reg_39_65","other_branch_src_reg_39_66","other_branch_src_reg_39_67","","","other_branch_src_reg_39_68","other_branch_src_reg_39_69","other_branch_src_reg_39_70"],"src_reg":["src_reg_39_18","src_reg_39_19",[""],["src_reg_39_20","src_reg_39_21"],"src_reg_39_22","src_reg_39_23","src_reg_39_24","src_reg_39_25","src_reg_39_26","src_reg_39_27","src_reg_39_28","src_reg_39_29","src_reg_39_30","src_reg_39_31","","","src_reg_39_32","src_reg_39_33","src_reg_39_34"]}
;{"dst_reg":["dst_reg_39_199","dst_reg_39_200",[""],["dst_reg_39_201","dst_reg_39_202"],"dst_reg_39_203","dst_reg_39_204","dst_reg_39_205","dst_reg_39_206","dst_reg_39_207","dst_reg_39_208","dst_reg_39_209","dst_reg_39_210","dst_reg_39_211","dst_reg_39_212","","","dst_reg_39_213","dst_reg_39_214","dst_reg_39_215"],"other_branch_dst_reg":["other_branch_dst_reg_39_235","other_branch_dst_reg_39_236",[""],["other_branch_dst_reg_39_237","other_branch_dst_reg_39_238"],"other_branch_dst_reg_39_239","other_branch_dst_reg_39_240","other_branch_dst_reg_39_241","other_branch_dst_reg_39_242","other_branch_dst_reg_39_243","other_branch_dst_reg_39_244","other_branch_dst_reg_39_245","other_branch_dst_reg_39_246","other_branch_dst_reg_39_247","other_branch_dst_reg_39_248","","","other_branch_dst_reg_39_249","other_branch_dst_reg_39_250","other_branch_dst_reg_39_251"],"other_branch_src_reg":["other_branch_src_reg_39_253","other_branch_src_reg_39_254",[""],["other_branch_src_reg_39_255","other_branch_src_reg_39_256"],"other_branch_src_reg_39_257","other_branch_src_reg_39_258","other_branch_src_reg_39_259","other_branch_src_reg_39_260","other_branch_src_reg_39_261","other_branch_src_reg_39_262","other_branch_src_reg_39_263","other_branch_src_reg_39_264","other_branch_src_reg_39_265","other_branch_src_reg_39_266","","","other_branch_src_reg_39_267","other_branch_src_reg_39_268","other_branch_src_reg_39_269"],"src_reg":["src_reg_39_217","src_reg_39_218",[""],["src_reg_39_219","src_reg_39_220"],"src_reg_39_221","src_reg_39_222","src_reg_39_223","src_reg_39_224","src_reg_39_225","src_reg_39_226","src_reg_39_227","src_reg_39_228","src_reg_39_229","src_reg_39_230","","","src_reg_39_231","src_reg_39_232","src_reg_39_233"]}
